examples/taylor_sine/txt/taylor_sin_swap.txt
Bounds on variables: 
x (Real) in [-1 / 2, 1 / 2]

exact NVC: 

		NOT
			AND
				IMPL
					0 <= (((sin x) + (-1 * (x - (((x * x) * x) / 6)))) + 1769513 / 100000000000000)
					(25889 * (1 / 100000000)) <= (((sin x) + (-1 * (x - (((x * x) * x) / 6)))) - 1769513 / 100000000000000)
				IMPL
					NOT
						0 <= (((sin x) + (-1 * (x - (((x * x) * x) / 6)))) - 1769513 / 100000000000000)
					(25889 * (1 / 100000000)) <= ((-1 * ((sin x) + (-1 * (x - (((x * x) * x) / 6))))) - 1769513 / 100000000000000)